NAME : kroC100-C-5-0-a.24040.tour
COMMENT : Length = 24040
COMMENT : Found by LKH-3 [Keld Helsgaun] Tue Jul 30 13:14:12 2024
TYPE : TOUR
DIMENSION : 100
TOUR_SECTION
1
85
40
12
60
4
93
49
18
63
19
99
14
36
57
33
100
74
69
3
73
59
41
89
21
23
70
76
91
94
95
50
62
83
72
86
5
43
56
71
38
39
28
88
98
58
34
90
25
17
8
22
75
6
54
2
35
68
30
77
80
65
31
47
67
55
42
20
64
79
13
15
27
53
46
24
32
26
7
82
78
9
61
29
37
16
51
44
66
48
84
11
52
87
96
97
81
45
10
92
-1
EOF
